peakDumbCharging = 29600; 
Machine = anon_enum(16); 
machineSpeed = [3700,3700,3700,3700,3700,3700,3700,3700,3700,3700,3700,3700,3700,3700,3700,3700]; 
machineLoad = [3700,3700,3700,3700,3700,3700,3700,3700,3700,3700,3700,3700,3700,3700,3700,3700]; 
Car = anon_enum(35); 
demandCar = [5720,21720,5080,23320,19360,6560,14520,15800,9840,1760,9080,25280,9880,4600,11120,2280,4080,4440,8440,10120,12840,16640,20880,7680,7200,5720,12600,26880,9120,7680,14640,4240,120,17120,12800]; 
arrivalCar = [72,70,68,67,67,64,64,64,62,61,61,60,58,58,57,57,57,56,55,55,52,51,50,49,49,49,48,46,45,45,42,40,40,39,37]; 
departureCar = [76,78,71,78,79,68,69,74,67,63,65,75,63,61,64,58,59,60,59,62,57,56,60,52,54,52,56,58,49,50,49,52,41,46,42]; 
